3 3 2
20 1 41 0 7 1 33 2 30 0 21 1 34 0 41 1 35 0 24 2 33 1 41 0 4 2 34 1 8 0 17 2 3 0 21 2 23 0 7 2 35 
20 0 39 1 6 0 27 2 1 1 36 0 31 1 34 2 29 0 41 1 19 0 42 2 5 0 4 2 45 1 45 0 28 2 31 0 45 1 34 2 38 
20 1 28 2 15 0 1 1 46 2 17 1 39 0 27 1 37 0 47 2 16 1 38 0 9 1 44 2 3 0 27 1 6 2 39 0 21 2 47 0 2 

-------------
